\Problem name: ClpDefaultName

Minimize
obj: 6.56526 x192 + 6.56526 x193 + 6.56526 x194 + 6.56526 x195 + 6.56526 x196 + 6.56526 x197 + 6.56526 x198 + 6.56526 x199 + 6.56526 x200 + 6.56526 x201
 + 6.56526 x202 + 6.56526 x203 + 6.56526 x204 + 6.56526 x205 + 6.56526 x206 + 6.56526 x207 + 6.56526 x208 + 6.56526 x209 + 6.56526 x210 + 6.56526 x211
 + 6.56526 x212 + 6.56526 x213 + 6.56526 x214 + 6.56526 x215 + 6.56526 x216 + 6.56526 x217 + 6.56526 x218 + 6.56526 x219 + 6.56526 x220 + 6.56526 x221
 + 6.56526 x222 + 6.56526 x223 + 6.56526 x224 + 6.56526 x225 + 6.56526 x226 + 6.56526 x227 + 6.56526 x228 + 6.56526 x229 + 6.56526 x230 + 6.56526 x231
 + 6.56526 x232 + 6.56526 x233 + 6.56526 x234 + 6.56526 x235 + 6.56526 x236 + 6.56526 x237 + 6.56526 x238 + 6.56526 x239 + 6.56526 x240 + 6.56526 x241
 + 6.56526 x242 + 6.56526 x243 + 6.56526 x244 + 6.56526 x245 + 6.56526 x246 + 6.56526 x247 + 6.56526 x248 + 6.56526 x249 + 6.56526 x250 + 6.56526 x251
 + 6.56526 x252 + 6.56526 x253 + 6.56526 x254 + 6.56526 x255 + 6.56526 x256 + 6.56526 x257 + 6.56526 x258 + 6.56526 x259 + 6.56526 x260 + 6.56526 x261
 + 6.56526 x262 + 6.56526 x263 + 6.56526 x264 + 6.56526 x265 + 6.56526 x266 + 6.56526 x267 + 6.56526 x268 + 6.56526 x269 + 6.56526 x270 + 6.56526 x271
 + 6.56526 x272 + 6.56526 x273 + 6.56526 x274 + 6.56526 x275 + 6.56526 x276 + 6.56526 x277 + 6.56526 x278 + 6.56526 x279 + 6.56526 x280 + 6.56526 x281
 + 6.56526 x282 + 6.56526 x283 + 6.56526 x284 + 6.56526 x285 + 6.56526 x286 + 6.56526 x287 + 6.56526 x288 + 6.56526 x289 + 6.56526 x290 + 6.56526 x291
 + 6.56526 x292 + 6.56526 x293 + 6.56526 x294 + 6.56526 x295 + 6.56526 x296 + 6.56526 x297 + 6.56526 x298 + 6.56526 x299 + 6.56526 x300 + 6.56526 x301
 + 6.56526 x302 + 6.56526 x303 + 6.56526 x304 + 6.56526 x305 + 6.56526 x306 + 6.56526 x307 + 6.56526 x308 + 6.56526 x309 + 6.56526 x310 + 6.56526 x311
 + 6.56526 x312 + 6.56526 x313 + 6.56526 x314 + 6.56526 x315 + 0.30094 x316 + 5.80147 x317 + 1.49738 x318 + 0.59755 x319 + 0.58112 x320 + 0.82826 x321
 + 0.84610 x322 + 0.65105 x323 + 0.66663 x324 + 0.37343 x325 + 0.37235 x326 + 1.93828 x327 + 0.65310 x328 + 0.59665 x329 + 0.27001 x330 + 0.35469 x331
 + 3.29279 x332 + 6.56526 x333 + 0.01373 x334 + 0.01373 x335 + 0.01373 x336 + 0.01373 x337 + 0.01373 x338 + 0.01373 x339 + 0.01373 x340 + 0.01373 x341
 + 0.01373 x342 + 0.01373 x343 + 0.01373 x344 + 0.01373 x345 + 0.01373 x346 + 0.01373 x347 + 0.01373 x348 + 0.01373 x349 + 0.01373 x350 + 0.01373 x351
 + 0.01373 x352 + 0.01373 x353 + 0.01373 x354 + 0.01373 x355 + 0.01373 x356 + 0.01373 x357 + 0.01373 x358 + 0.01373 x359 + 0.01373 x360 + 0.01373 x361
 + 0.01373 x362 + 0.01373 x363 + 0.01373 x364 + 0.01373 x365 + 0.01373 x366 + 0.01373 x367 + 0.01373 x368 + 0.01373 x369 + 0.01373 x370 + 0.01373 x371
 + 0.01373 x372 + 0.01373 x373 + 0.01373 x374 + 0.01373 x375 + 0.01373 x376 + 0.01373 x377 + 0.01373 x378 + 0.01373 x379 + 0.01373 x380 + 0.01373 x381
 + 0.01373 x382 + 0.01373 x383 + 0.01373 x384 + 0.01373 x385 + 0.01373 x386 + 0.01373 x387 + 0.01373 x388 + 0.01373 x389 + 0.01373 x390 + 0.01373 x391
 + 0.01373 x392 + 0.01373 x393 + 0.01373 x394 + 0.01373 x395 + 0.01373 x396 + 0.01373 x397 + 0.01373 x398 + 0.01373 x399 + 0.01373 x400 + 0.01373 x401
 + 0.01373 x402 + 0.01373 x403 + 0.01373 x404 + 0.01373 x405 + 0.01373 x406 + 0.01373 x407 + 0.01373 x408 + 0.01373 x409 + 0.01373 x410 + 0.01373 x411
 + 0.01373 x412 + 0.01373 x413 + 0.01373 x414 + 0.01373 x415 + 0.01373 x416 + 0.01373 x417 + 0.01373 x418 + 0.01373 x419 + 0.01373 x420 + 0.01373 x421
 + 0.01373 x422 + 0.01373 x423 + 0.01373 x424 + 0.01373 x425 + 0.01373 x426 + 0.01373 x427 + 0.01373 x428 + 0.01373 x429 + 0.01373 x430 + 0.01373 x431
 + 0.01373 x432 + 0.01373 x433 + 0.01373 x434 + 0.01373 x435 + 0.01373 x436 + 0.01373 x437 + 0.01373 x438 + 0.01373 x439 + 0.01373 x440 + 0.01373 x441
 + 0.01373 x442 + 0.01373 x443 + 0.01373 x444 + 0.01373 x445 + 0.01373 x446 + 0.01373 x447 + 0.01373 x448 + 0.01373 x449 + 0.01373 x450 + 0.01373 x451
 + 0.01373 x452 + 0.01373 x453 + 0.01373 x454 + 0.01373 x455 + 0.01373 x456 + 0.01373 x457 + 0.01373 x458 + 0.01373 x459 + 0.01373 x460 + 0.01373 x461
 + 0.01373 x462 + 0.01373 x463 + 0.01373 x464 + 0.01373 x465 + 0.01373 x466 + 0.01373 x467 + 0.01373 x468 + 0.01373 x469 + 0.01373 x470 + 0.01373 x471
 + 0.01373 x472 + 0.01373 x473 + 0.01373 x474 + 0.01373 x475 + 0.01373 x476 + 0.01373 x477 + 0.01373 x478 + 0.01373 x479 + 0.01373 x480 + 0.01373 x481
 + 0.01373 x482 + 6.56526 x483 + 6.56526 x484
Subject To
cons0:  309.04750 x0 + x316 >= 44.92030
cons1:  309.04750 x0 - x316 <= 44.92030
cons2:  x0 - x43 - x44 - x166 = 0
cons3:  x0 - x18 - x51 - x52 - x53 - x54 - x55 - x56 - x57 - x58
 -2 x59 - x60 - x61 - x62 - x63 = 0
cons4:  309.04750 x1 + x317 >= 3740.86000
cons5:  309.04750 x1 - x317 <= 3740.86000
cons6:  x1 - x18 - x33 - x45 - x46 - x47 - x48 - x49 -2 x50 = 0
cons7:  x1 - x19 - x34 = 0
cons8:  309.04750 x2 + x318 >= 1134.08000
cons9:  309.04750 x2 - x318 <= 1134.08000
cons10:  x2 - x19 = 0
cons11:  x2 - x20 - x35 - x53 - x71 - x72 -2 x73 - x74 - x75 - x76
 = 0
cons12:  309.04750 x3 + x319 >= 589.09100
cons13:  309.04750 x3 - x319 <= 589.09100
cons14:  x3 - x20 - x45 - x63 - x64 - x65 - x66 - x67 - x68 - x69
 -2 x70 = 0
cons15:  x3 - x21 - x54 - x74 - x84 - x85 - x86 - x87 - x88 -2 x89
 - x90 - x91 = 0
cons16:  309.04750 x4 + x320 >= 579.14200
cons17:  309.04750 x4 - x320 <= 579.14200
cons18:  x4 - x21 - x36 - x58 - x69 - x76 - x77 - x78 - x79 - x80
 - x81 -2 x82 - x83 = 0
cons19:  x4 - x22 - x64 - x77 - x94 - x95 - x96 - x97 - x98 = 0
cons20:  309.04750 x5 + x321 >= 728.82100
cons21:  309.04750 x5 - x321 <= 728.82100
cons22:  x5 - x22 - x36 - x65 - x91 - x92 -2 x93 = 0
cons23:  x5 - x23 - x75 - x105 - x106 - x107 - x108 - x109 - x110 - x111
 -2 x112 - x113 - x114 - x115 = 0
cons24:  309.04750 x6 + x322 >= 739.62800
cons25:  309.04750 x6 - x322 <= 739.62800
cons26:  x6 - x23 - x37 - x48 - x51 - x66 - x72 - x83 - x90 - x98
 - x99 - x100 - x101 - x102 - x103 -2 x104 = 0
cons27:  x6 - x24 - x38 - x71 - x84 - x92 - x99 - x119 - x120 - x121
 - x122 - x123 - x124 - x125 - x126 = 0
cons28:  309.04750 x7 + x323 >= 621.49800
cons29:  309.04750 x7 - x323 <= 621.49800
cons30:  x7 - x24 - x52 - x87 - x94 - x103 - x115 - x116 - x117 -2 x118
 = 0
cons31:  x7 - x25 - x60 - x100 - x108 - x119 - x130 - x131 - x132 - x133
 - x134 - x135 - x136 - x137 = 0
cons32:  309.04750 x8 + x324 >= 630.93200
cons33:  309.04750 x8 - x324 <= 630.93200
cons34:  x8 - x25 - x37 - x67 - x88 - x97 - x114 - x126 - x127 - x128
 - x129 = 0
cons35:  x8 - x26 - x38 - x61 - x78 - x95 - x109 - x116 - x141 - x142
 -2 x143 - x144 - x145 - x146 = 0
cons36:  309.04750 x9 + x325 >= 453.35700
cons37:  309.04750 x9 - x325 <= 453.35700
cons38:  x9 - x26 - x79 - x107 - x125 - x127 - x137 - x138 - x139 -2 x140
 = 0
cons39:  x9 - x27 - x39 - x120 - x130 -2 x147 = 0
cons40:  309.04750 x10 + x326 >= 1.67000
cons41:  309.04750 x10 - x326 <= 1.67000
cons42:  x10 - x27 - x105 - x122 - x133 - x138 - x144 = 0
cons43:  x10 - x166 = 0
cons44:  309.04750 x11 + x327 >= 1401.11000
cons45:  309.04750 x11 - x327 <= 1401.11000
cons46:  x11 - x42 - x49 - x85 - x128 - x141 - x148 -2 x149 - x150 - x151
 = 0
cons47:  x11 - x28 - x40 - x47 - x110 - x123 - x135 - x145 - x155 - x158
 = 0
cons48:  309.04750 x12 + x328 >= 622.73700
cons49:  309.04750 x12 - x328 <= 622.73700
cons50:  x12 - x28 - x81 - x96 - x102 - x132 - x151 - x153 - x163 -2 x165
 = 0
cons51:  x12 - x29 - x41 - x46 - x111 - x117 - x124 - x136 - x139 - x146
 -2 x156 - x157 = 0
cons52:  309.04750 x13 + x329 >= 588.55100
cons53:  309.04750 x13 - x329 <= 588.55100
cons54:  x13 - x29 - x55 - x113 - x121 - x129 - x134 - x150 - x152 - x153
 -2 x154 - x155 = 0
cons55:  x13 - x30 - x39 - x62 -2 x160 - x161 = 0
cons56:  309.04750 x14 + x330 >= 63.65360
cons57:  309.04750 x14 - x330 <= 63.65360
cons58:  x14 - x30 - x157 - x158 -2 x159 = 0
cons59:  x14 - x31 - x41 - x43 - x57 -2 x162 = 0
cons60:  309.04750 x15 + x331 >= 12.36760
cons61:  309.04750 x15 - x331 <= 12.36760
cons62:  x15 - x31 - x44 - x161 = 0
cons63:  x15 - x34 = 0
cons64:  309.04750 x16 + x332 >= 2221.47000
cons65:  309.04750 x16 - x332 <= 2221.47000
cons66:  x16 - x33 - x56 - x68 - x80 - x86 - x101 - x106 - x131 - x142
 - x148 - x152 - x163 -2 x164 = 0
cons67:  x16 - x32 = 0
cons68:  309.04750 x17 + x333 >= 4203.45000
cons69:  309.04750 x17 - x333 <= 4203.45000
cons70:  x17 - x32 - x40 = 0
cons71:  x17 - x35 - x42 = 0
cons72:  309.04750 x18 -18.05000 x167 + x334 >= 0
cons73:  309.04750 x18 -18.05000 x167 - x334 <= 0
cons74:  x18 -999999 x167 <= 0
cons75:  x18 - x167 >= 0
cons76:  309.04750 x19 -2092.05000 x168 + x335 >= 0
cons77:  309.04750 x19 -2092.05000 x168 - x335 <= 0
cons78:  x19 -999999 x168 <= 0
cons79:  x19 - x168 >= 0
cons80:  309.04750 x20 -301.05000 x169 + x336 >= 0
cons81:  309.04750 x20 -301.05000 x169 - x336 <= 0
cons82:  x20 -999999 x169 <= 0
cons83:  x20 - x169 >= 0
cons84:  309.04750 x21 -573.05000 x170 + x337 >= 0
cons85:  309.04750 x21 -573.05000 x170 - x337 <= 0
cons86:  x21 -999999 x170 <= 0
cons87:  x21 - x170 >= 0
cons88:  309.04750 x22 -629.05000 x171 + x338 >= 0
cons89:  309.04750 x22 -629.05000 x171 - x338 <= 0
cons90:  x22 -999999 x171 <= 0
cons91:  x22 - x171 >= 0
cons92:  309.04750 x23 -663.05000 x172 + x339 >= 0
cons93:  309.04750 x23 -663.05000 x172 - x339 <= 0
cons94:  x23 -999999 x172 <= 0
cons95:  x23 - x172 >= 0
cons96:  309.04750 x24 -607.05000 x173 + x340 >= 0
cons97:  309.04750 x24 -607.05000 x173 - x340 <= 0
cons98:  x24 -999999 x173 <= 0
cons99:  x24 - x173 >= 0
cons100:  309.04750 x25 -620.05000 x174 + x341 >= 0
cons101:  309.04750 x25 -620.05000 x174 - x341 <= 0
cons102:  x25 -999999 x174 <= 0
cons103:  x25 - x174 >= 0
cons104:  309.04750 x26 -460.05000 x175 + x342 >= 0
cons105:  309.04750 x26 -460.05000 x175 - x342 <= 0
cons106:  x26 -999999 x175 <= 0
cons107:  x26 - x175 >= 0
cons108:  309.04750 x27 -6.05000 x176 + x343 >= 0
cons109:  309.04750 x27 -6.05000 x176 - x343 <= 0
cons110:  x27 -999999 x176 <= 0
cons111:  x27 - x176 >= 0
cons112:  309.04750 x28 -720.05000 x177 + x344 >= 0
cons113:  309.04750 x28 -720.05000 x177 - x344 <= 0
cons114:  x28 -999999 x177 <= 0
cons115:  x28 - x177 >= 0
cons116:  309.04750 x29 -646.05000 x178 + x345 >= 0
cons117:  309.04750 x29 -646.05000 x178 - x345 <= 0
cons118:  x29 -999999 x178 <= 0
cons119:  x29 - x178 >= 0
cons120:  309.04750 x30 -64.05000 x179 + x346 >= 0
cons121:  309.04750 x30 -64.05000 x179 - x346 <= 0
cons122:  x30 -999999 x179 <= 0
cons123:  x30 - x179 >= 0
cons124:  309.04750 x31 -14.05000 x180 + x347 >= 0
cons125:  309.04750 x31 -14.05000 x180 - x347 <= 0
cons126:  x31 -999999 x180 <= 0
cons127:  x31 - x180 >= 0
cons128:  309.04750 x32 -3633.05000 x181 + x348 >= 0
cons129:  309.04750 x32 -3633.05000 x181 - x348 <= 0
cons130:  x32 -999999 x181 <= 0
cons131:  x32 - x181 >= 0
cons132:  309.04750 x33 -899.05000 x182 + x349 >= 0
cons133:  309.04750 x33 -899.05000 x182 - x349 <= 0
cons134:  x33 -999999 x182 <= 0
cons135:  x33 - x182 >= 0
cons136:  309.04750 x34 -1.05000 x183 + x350 >= 0
cons137:  309.04750 x34 -1.05000 x183 - x350 <= 0
cons138:  x34 -999999 x183 <= 0
cons139:  x34 - x183 >= 0
cons140:  309.04750 x35 -235.55000 x184 + x351 >= 0
cons141:  309.04750 x35 -235.55000 x184 - x351 <= 0
cons142:  x35 -999999 x184 <= 0
cons143:  x35 - x184 >= 0
cons144:  309.04750 x36 -60.55000 x185 + x352 >= 0
cons145:  309.04750 x36 -60.55000 x185 - x352 <= 0
cons146:  x36 -999999 x185 <= 0
cons147:  x36 - x185 >= 0
cons148:  309.04750 x37 -37.05000 x186 + x353 >= 0
cons149:  309.04750 x37 -37.05000 x186 - x353 <= 0
cons150:  x37 -999999 x186 <= 0
cons151:  x37 - x186 >= 0
cons152:  309.04750 x38 -36.55000 x187 + x354 >= 0
cons153:  309.04750 x38 -36.55000 x187 - x354 <= 0
cons154:  x38 -999999 x187 <= 0
cons155:  x38 - x187 >= 0
cons156:  309.04750 x39 -117.05000 x188 + x355 >= 0
cons157:  309.04750 x39 -117.05000 x188 - x355 <= 0
cons158:  x39 -999999 x188 <= 0
cons159:  x39 - x188 >= 0
cons160:  309.04750 x40 -55.05000 x189 + x356 >= 0
cons161:  309.04750 x40 -55.05000 x189 - x356 <= 0
cons162:  x40 -999999 x189 <= 0
cons163:  x40 - x189 >= 0
cons164:  309.04750 x41 -18.55000 x190 + x357 >= 0
cons165:  309.04750 x41 -18.55000 x190 - x357 <= 0
cons166:  x41 -999999 x190 <= 0
cons167:  x41 - x190 >= 0
cons168:  309.04750 x42 -969.55000 x191 + x358 >= 0
cons169:  309.04750 x42 -969.55000 x191 - x358 <= 0
cons170:  x42 -999999 x191 <= 0
cons171:  x42 - x191 >= 0
cons172:  309.04750 x43 -38.08700 x192 + x359 >= 0
cons173:  309.04750 x43 -38.08700 x192 - x359 <= 0
cons174:  x43 -999999 x192 <= 0
cons175:  x43 - x192 >= 0
cons176:  309.04750 x44 -2.67549 x193 + x360 >= 0
cons177:  309.04750 x44 -2.67549 x193 - x360 <= 0
cons178:  x44 -999999 x193 <= 0
cons179:  x44 - x193 >= 0
cons180:  309.04750 x45 -1556.02000 x194 + x361 >= 0
cons181:  309.04750 x45 -1556.02000 x194 - x361 <= 0
cons182:  x45 -999999 x194 <= 0
cons183:  x45 - x194 >= 0
cons184:  309.04750 x46 -613.11000 x195 + x362 >= 0
cons185:  309.04750 x46 -613.11000 x195 - x362 <= 0
cons186:  x46 -999999 x195 <= 0
cons187:  x46 - x195 >= 0
cons188:  309.04750 x47 -640.51500 x196 + x363 >= 0
cons189:  309.04750 x47 -640.51500 x196 - x363 <= 0
cons190:  x47 -999999 x196 <= 0
cons191:  x47 - x196 >= 0
cons192:  309.04750 x48 -27.04330 x197 + x364 >= 0
cons193:  309.04750 x48 -27.04330 x197 - x364 <= 0
cons194:  x48 -999999 x197 <= 0
cons195:  x48 - x197 >= 0
cons196:  309.04750 x49 -209.53600 x198 + x365 >= 0
cons197:  309.04750 x49 -209.53600 x198 - x365 <= 0
cons198:  x49 -999999 x198 <= 0
cons199:  x49 - x198 >= 0
cons200:  309.04750 x50 -1.05000 x199 + x366 >= 0
cons201:  309.04750 x50 -1.05000 x199 - x366 <= 0
cons202:  x50 -999999 x199 <= 0
cons203:  x50 - x199 >= 0
cons204:  309.04750 x51 -19.82760 x200 + x367 >= 0
cons205:  309.04750 x51 -19.82760 x200 - x367 <= 0
cons206:  x51 -999999 x200 <= 0
cons207:  x51 - x200 >= 0
cons208:  309.04750 x52 -10.87030 x201 + x368 >= 0
cons209:  309.04750 x52 -10.87030 x201 - x368 <= 0
cons210:  x52 -999999 x201 <= 0
cons211:  x52 - x201 >= 0
cons212:  309.04750 x53 -297.00100 x202 + x369 >= 0
cons213:  309.04750 x53 -297.00100 x202 - x369 <= 0
cons214:  x53 -999999 x202 <= 0
cons215:  x53 - x202 >= 0
cons216:  309.04750 x54 -1.05000 x203 + x370 >= 0
cons217:  309.04750 x54 -1.05000 x203 - x370 <= 0
cons218:  x54 -999999 x203 <= 0
cons219:  x54 - x203 >= 0
cons220:  309.04750 x55 -1.05000 x204 + x371 >= 0
cons221:  309.04750 x55 -1.05000 x204 - x371 <= 0
cons222:  x55 -999999 x204 <= 0
cons223:  x55 - x204 >= 0
cons224:  309.04750 x56 -509.97000 x205 + x372 >= 0
cons225:  309.04750 x56 -509.97000 x205 - x372 <= 0
cons226:  x56 -999999 x205 <= 0
cons227:  x56 - x205 >= 0
cons228:  309.04750 x57 -1.05000 x206 + x373 >= 0
cons229:  309.04750 x57 -1.05000 x206 - x373 <= 0
cons230:  x57 -999999 x206 <= 0
cons231:  x57 - x206 >= 0
cons232:  309.04750 x58 -1.05000 x207 + x374 >= 0
cons233:  309.04750 x58 -1.05000 x207 - x374 <= 0
cons234:  x58 -999999 x207 <= 0
cons235:  x58 - x207 >= 0
cons236:  309.04750 x59 -1.05000 x208 + x375 >= 0
cons237:  309.04750 x59 -1.05000 x208 - x375 <= 0
cons238:  x59 -999999 x208 <= 0
cons239:  x59 - x208 >= 0
cons240:  309.04750 x60 -1.05000 x209 + x376 >= 0
cons241:  309.04750 x60 -1.05000 x209 - x376 <= 0
cons242:  x60 -999999 x209 <= 0
cons243:  x60 - x209 >= 0
cons244:  309.04750 x61 -1.05000 x210 + x377 >= 0
cons245:  309.04750 x61 -1.05000 x210 - x377 <= 0
cons246:  x61 -999999 x210 <= 0
cons247:  x61 - x210 >= 0
cons248:  309.04750 x62 -1.05000 x211 + x378 >= 0
cons249:  309.04750 x62 -1.05000 x211 - x378 <= 0
cons250:  x62 -999999 x211 <= 0
cons251:  x62 - x211 >= 0
cons252:  309.04750 x63 -1.05000 x212 + x379 >= 0
cons253:  309.04750 x63 -1.05000 x212 - x379 <= 0
cons254:  x63 -999999 x212 <= 0
cons255:  x63 - x212 >= 0
cons256:  309.04750 x64 -1.05000 x213 + x380 >= 0
cons257:  309.04750 x64 -1.05000 x213 - x380 <= 0
cons258:  x64 -999999 x213 <= 0
cons259:  x64 - x213 >= 0
cons260:  309.04750 x65 -1.05000 x214 + x381 >= 0
cons261:  309.04750 x65 -1.05000 x214 - x381 <= 0
cons262:  x65 -999999 x214 <= 0
cons263:  x65 - x214 >= 0
cons264:  309.04750 x66 -1.05000 x215 + x382 >= 0
cons265:  309.04750 x66 -1.05000 x215 - x382 <= 0
cons266:  x66 -999999 x215 <= 0
cons267:  x66 - x215 >= 0
cons268:  309.04750 x67 -1.05000 x216 + x383 >= 0
cons269:  309.04750 x67 -1.05000 x216 - x383 <= 0
cons270:  x67 -999999 x216 <= 0
cons271:  x67 - x216 >= 0
cons272:  309.04750 x68 -1.05000 x217 + x384 >= 0
cons273:  309.04750 x68 -1.05000 x217 - x384 <= 0
cons274:  x68 -999999 x217 <= 0
cons275:  x68 - x217 >= 0
cons276:  309.04750 x69 -1.05000 x218 + x385 >= 0
cons277:  309.04750 x69 -1.05000 x218 - x385 <= 0
cons278:  x69 -999999 x218 <= 0
cons279:  x69 - x218 >= 0
cons280:  309.04750 x70 -1.05000 x219 + x386 >= 0
cons281:  309.04750 x70 -1.05000 x219 - x386 <= 0
cons282:  x70 -999999 x219 <= 0
cons283:  x70 - x219 >= 0
cons284:  309.04750 x71 -198.42800 x220 + x387 >= 0
cons285:  309.04750 x71 -198.42800 x220 - x387 <= 0
cons286:  x71 -999999 x220 <= 0
cons287:  x71 - x220 >= 0
cons288:  309.04750 x72 -47.10360 x221 + x388 >= 0
cons289:  309.04750 x72 -47.10360 x221 - x388 <= 0
cons290:  x72 -999999 x221 <= 0
cons291:  x72 - x221 >= 0
cons292:  309.04750 x73 -55.24640 x222 + x389 >= 0
cons293:  309.04750 x73 -55.24640 x222 - x389 <= 0
cons294:  x73 -999999 x222 <= 0
cons295:  x73 - x222 >= 0
cons296:  309.04750 x74 -1.05000 x223 + x390 >= 0
cons297:  309.04750 x74 -1.05000 x223 - x390 <= 0
cons298:  x74 -999999 x223 <= 0
cons299:  x74 - x223 >= 0
cons300:  309.04750 x75 -4.86211 x224 + x391 >= 0
cons301:  309.04750 x75 -4.86211 x224 - x391 <= 0
cons302:  x75 -999999 x224 <= 0
cons303:  x75 - x224 >= 0
cons304:  309.04750 x76 -1.05000 x225 + x392 >= 0
cons305:  309.04750 x76 -1.05000 x225 - x392 <= 0
cons306:  x76 -999999 x225 <= 0
cons307:  x76 - x225 >= 0
cons308:  309.04750 x77 -1.05000 x226 + x393 >= 0
cons309:  309.04750 x77 -1.05000 x226 - x393 <= 0
cons310:  x77 -999999 x226 <= 0
cons311:  x77 - x226 >= 0
cons312:  309.04750 x78 -37.58690 x227 + x394 >= 0
cons313:  309.04750 x78 -37.58690 x227 - x394 <= 0
cons314:  x78 -999999 x227 <= 0
cons315:  x78 - x227 >= 0
cons316:  309.04750 x79 -1.05000 x228 + x395 >= 0
cons317:  309.04750 x79 -1.05000 x228 - x395 <= 0
cons318:  x79 -999999 x228 <= 0
cons319:  x79 - x228 >= 0
cons320:  309.04750 x80 -357.37700 x229 + x396 >= 0
cons321:  309.04750 x80 -357.37700 x229 - x396 <= 0
cons322:  x80 -999999 x229 <= 0
cons323:  x80 - x229 >= 0
cons324:  309.04750 x81 -1.05000 x230 + x397 >= 0
cons325:  309.04750 x81 -1.05000 x230 - x397 <= 0
cons326:  x81 -999999 x230 <= 0
cons327:  x81 - x230 >= 0
cons328:  309.04750 x82 -1.05000 x231 + x398 >= 0
cons329:  309.04750 x82 -1.05000 x231 - x398 <= 0
cons330:  x82 -999999 x231 <= 0
cons331:  x82 - x231 >= 0
cons332:  309.04750 x83 -1.05000 x232 + x399 >= 0
cons333:  309.04750 x83 -1.05000 x232 - x399 <= 0
cons334:  x83 -999999 x232 <= 0
cons335:  x83 - x232 >= 0
cons336:  309.04750 x84 -1.05000 x233 + x400 >= 0
cons337:  309.04750 x84 -1.05000 x233 - x400 <= 0
cons338:  x84 -999999 x233 <= 0
cons339:  x84 - x233 >= 0
cons340:  309.04750 x85 -117.65600 x234 + x401 >= 0
cons341:  309.04750 x85 -117.65600 x234 - x401 <= 0
cons342:  x85 -999999 x234 <= 0
cons343:  x85 - x234 >= 0
cons344:  309.04750 x86 -174.90300 x235 + x402 >= 0
cons345:  309.04750 x86 -174.90300 x235 - x402 <= 0
cons346:  x86 -999999 x235 <= 0
cons347:  x86 - x235 >= 0
cons348:  309.04750 x87 -1.05000 x236 + x403 >= 0
cons349:  309.04750 x87 -1.05000 x236 - x403 <= 0
cons350:  x87 -999999 x236 <= 0
cons351:  x87 - x236 >= 0
cons352:  309.04750 x88 -1.05000 x237 + x404 >= 0
cons353:  309.04750 x88 -1.05000 x237 - x404 <= 0
cons354:  x88 -999999 x237 <= 0
cons355:  x88 - x237 >= 0
cons356:  309.04750 x89 -1.05000 x238 + x405 >= 0
cons357:  309.04750 x89 -1.05000 x238 - x405 <= 0
cons358:  x89 -999999 x238 <= 0
cons359:  x89 - x238 >= 0
cons360:  309.04750 x90 -1.05000 x239 + x406 >= 0
cons361:  309.04750 x90 -1.05000 x239 - x406 <= 0
cons362:  x90 -999999 x239 <= 0
cons363:  x90 - x239 >= 0
cons364:  309.04750 x91 -1.05000 x240 + x407 >= 0
cons365:  309.04750 x91 -1.05000 x240 - x407 <= 0
cons366:  x91 -999999 x240 <= 0
cons367:  x91 - x240 >= 0
cons368:  309.04750 x92 -1.05000 x241 + x408 >= 0
cons369:  309.04750 x92 -1.05000 x241 - x408 <= 0
cons370:  x92 -999999 x241 <= 0
cons371:  x92 - x241 >= 0
cons372:  309.04750 x93 -36.37060 x242 + x409 >= 0
cons373:  309.04750 x93 -36.37060 x242 - x409 <= 0
cons374:  x93 -999999 x242 <= 0
cons375:  x93 - x242 >= 0
cons376:  309.04750 x94 -1.05000 x243 + x410 >= 0
cons377:  309.04750 x94 -1.05000 x243 - x410 <= 0
cons378:  x94 -999999 x243 <= 0
cons379:  x94 - x243 >= 0
cons380:  309.04750 x95 -21.56850 x244 + x411 >= 0
cons381:  309.04750 x95 -21.56850 x244 - x411 <= 0
cons382:  x95 -999999 x244 <= 0
cons383:  x95 - x244 >= 0
cons384:  309.04750 x96 -1.05000 x245 + x412 >= 0
cons385:  309.04750 x96 -1.05000 x245 - x412 <= 0
cons386:  x96 -999999 x245 <= 0
cons387:  x96 - x245 >= 0
cons388:  309.04750 x97 -1.05000 x246 + x413 >= 0
cons389:  309.04750 x97 -1.05000 x246 - x413 <= 0
cons390:  x97 -999999 x246 <= 0
cons391:  x97 - x246 >= 0
cons392:  309.04750 x98 -1.05000 x247 + x414 >= 0
cons393:  309.04750 x98 -1.05000 x247 - x414 <= 0
cons394:  x98 -999999 x247 <= 0
cons395:  x98 - x247 >= 0
cons396:  309.04750 x99 -1.05000 x248 + x415 >= 0
cons397:  309.04750 x99 -1.05000 x248 - x415 <= 0
cons398:  x99 -999999 x248 <= 0
cons399:  x99 - x248 >= 0
cons400:  309.04750 x100 -1.05000 x249 + x416 >= 0
cons401:  309.04750 x100 -1.05000 x249 - x416 <= 0
cons402:  x100 -999999 x249 <= 0
cons403:  x100 - x249 >= 0
cons404:  309.04750 x101 -109.63600 x250 + x417 >= 0
cons405:  309.04750 x101 -109.63600 x250 - x417 <= 0
cons406:  x101 -999999 x250 <= 0
cons407:  x101 - x250 >= 0
cons408:  309.04750 x102 -1.05000 x251 + x418 >= 0
cons409:  309.04750 x102 -1.05000 x251 - x418 <= 0
cons410:  x102 -999999 x251 <= 0
cons411:  x102 - x251 >= 0
cons412:  309.04750 x103 -1.05000 x252 + x419 >= 0
cons413:  309.04750 x103 -1.05000 x252 - x419 <= 0
cons414:  x103 -999999 x252 <= 0
cons415:  x103 - x252 >= 0
cons416:  309.04750 x104 -1.05000 x253 + x420 >= 0
cons417:  309.04750 x104 -1.05000 x253 - x420 <= 0
cons418:  x104 -999999 x253 <= 0
cons419:  x104 - x253 >= 0
cons420:  309.04750 x105 -28.38920 x254 + x421 >= 0
cons421:  309.04750 x105 -28.38920 x254 - x421 <= 0
cons422:  x105 -999999 x254 <= 0
cons423:  x105 - x254 >= 0
cons424:  309.04750 x106 -101.27600 x255 + x422 >= 0
cons425:  309.04750 x106 -101.27600 x255 - x422 <= 0
cons426:  x106 -999999 x255 <= 0
cons427:  x106 - x255 >= 0
cons428:  309.04750 x107 -1.05000 x256 + x423 >= 0
cons429:  309.04750 x107 -1.05000 x256 - x423 <= 0
cons430:  x107 -999999 x256 <= 0
cons431:  x107 - x256 >= 0
cons432:  309.04750 x108 -1.05000 x257 + x424 >= 0
cons433:  309.04750 x108 -1.05000 x257 - x424 <= 0
cons434:  x108 -999999 x257 <= 0
cons435:  x108 - x257 >= 0
cons436:  309.04750 x109 -1.95994 x258 + x425 >= 0
cons437:  309.04750 x109 -1.95994 x258 - x425 <= 0
cons438:  x109 -999999 x258 <= 0
cons439:  x109 - x258 >= 0
cons440:  309.04750 x110 -1.05000 x259 + x426 >= 0
cons441:  309.04750 x110 -1.05000 x259 - x426 <= 0
cons442:  x110 -999999 x259 <= 0
cons443:  x110 - x259 >= 0
cons444:  309.04750 x111 -1.05000 x260 + x427 >= 0
cons445:  309.04750 x111 -1.05000 x260 - x427 <= 0
cons446:  x111 -999999 x260 <= 0
cons447:  x111 - x260 >= 0
cons448:  309.04750 x112 -1.05000 x261 + x428 >= 0
cons449:  309.04750 x112 -1.05000 x261 - x428 <= 0
cons450:  x112 -999999 x261 <= 0
cons451:  x112 - x261 >= 0
cons452:  309.04750 x113 -1.05000 x262 + x429 >= 0
cons453:  309.04750 x113 -1.05000 x262 - x429 <= 0
cons454:  x113 -999999 x262 <= 0
cons455:  x113 - x262 >= 0
cons456:  309.04750 x114 -1.05000 x263 + x430 >= 0
cons457:  309.04750 x114 -1.05000 x263 - x430 <= 0
cons458:  x114 -999999 x263 <= 0
cons459:  x114 - x263 >= 0
cons460:  309.04750 x115 -1.05000 x264 + x431 >= 0
cons461:  309.04750 x115 -1.05000 x264 - x431 <= 0
cons462:  x115 -999999 x264 <= 0
cons463:  x115 - x264 >= 0
cons464:  309.04750 x116 -36.12200 x265 + x432 >= 0
cons465:  309.04750 x116 -36.12200 x265 - x432 <= 0
cons466:  x116 -999999 x265 <= 0
cons467:  x116 - x265 >= 0
cons468:  309.04750 x117 -1.05000 x266 + x433 >= 0
cons469:  309.04750 x117 -1.05000 x266 - x433 <= 0
cons470:  x117 -999999 x266 <= 0
cons471:  x117 - x266 >= 0
cons472:  309.04750 x118 -1.05000 x267 + x434 >= 0
cons473:  309.04750 x118 -1.05000 x267 - x434 <= 0
cons474:  x118 -999999 x267 <= 0
cons475:  x118 - x267 >= 0
cons476:  309.04750 x119 -1.05000 x268 + x435 >= 0
cons477:  309.04750 x119 -1.05000 x268 - x435 <= 0
cons478:  x119 -999999 x268 <= 0
cons479:  x119 - x268 >= 0
cons480:  309.04750 x120 -112.10400 x269 + x436 >= 0
cons481:  309.04750 x120 -112.10400 x269 - x436 <= 0
cons482:  x120 -999999 x269 <= 0
cons483:  x120 - x269 >= 0
cons484:  309.04750 x121 -1.05000 x270 + x437 >= 0
cons485:  309.04750 x121 -1.05000 x270 - x437 <= 0
cons486:  x121 -999999 x270 <= 0
cons487:  x121 - x270 >= 0
cons488:  309.04750 x122 -1.05000 x271 + x438 >= 0
cons489:  309.04750 x122 -1.05000 x271 - x438 <= 0
cons490:  x122 -999999 x271 <= 0
cons491:  x122 - x271 >= 0
cons492:  309.04750 x123 -1.05000 x272 + x439 >= 0
cons493:  309.04750 x123 -1.05000 x272 - x439 <= 0
cons494:  x123 -999999 x272 <= 0
cons495:  x123 - x272 >= 0
cons496:  309.04750 x124 -1.05000 x273 + x440 >= 0
cons497:  309.04750 x124 -1.05000 x273 - x440 <= 0
cons498:  x124 -999999 x273 <= 0
cons499:  x124 - x273 >= 0
cons500:  309.04750 x125 -1.05000 x274 + x441 >= 0
cons501:  309.04750 x125 -1.05000 x274 - x441 <= 0
cons502:  x125 -999999 x274 <= 0
cons503:  x125 - x274 >= 0
cons504:  309.04750 x126 -1.05000 x275 + x442 >= 0
cons505:  309.04750 x126 -1.05000 x275 - x442 <= 0
cons506:  x126 -999999 x275 <= 0
cons507:  x126 - x275 >= 0
cons508:  309.04750 x127 -1.05000 x276 + x443 >= 0
cons509:  309.04750 x127 -1.05000 x276 - x443 <= 0
cons510:  x127 -999999 x276 <= 0
cons511:  x127 - x276 >= 0
cons512:  309.04750 x128 -36.27340 x277 + x444 >= 0
cons513:  309.04750 x128 -36.27340 x277 - x444 <= 0
cons514:  x128 -999999 x277 <= 0
cons515:  x128 - x277 >= 0
cons516:  309.04750 x129 -1.05000 x278 + x445 >= 0
cons517:  309.04750 x129 -1.05000 x278 - x445 <= 0
cons518:  x129 -999999 x278 <= 0
cons519:  x129 - x278 >= 0
cons520:  309.04750 x130 -107.95100 x279 + x446 >= 0
cons521:  309.04750 x130 -107.95100 x279 - x446 <= 0
cons522:  x130 -999999 x279 <= 0
cons523:  x130 - x279 >= 0
cons524:  309.04750 x131 -1.05000 x280 + x447 >= 0
cons525:  309.04750 x131 -1.05000 x280 - x447 <= 0
cons526:  x131 -999999 x280 <= 0
cons527:  x131 - x280 >= 0
cons528:  309.04750 x132 -1.05000 x281 + x448 >= 0
cons529:  309.04750 x132 -1.05000 x281 - x448 <= 0
cons530:  x132 -999999 x281 <= 0
cons531:  x132 - x281 >= 0
cons532:  309.04750 x133 -1.05000 x282 + x449 >= 0
cons533:  309.04750 x133 -1.05000 x282 - x449 <= 0
cons534:  x133 -999999 x282 <= 0
cons535:  x133 - x282 >= 0
cons536:  309.04750 x134 -1.05000 x283 + x450 >= 0
cons537:  309.04750 x134 -1.05000 x283 - x450 <= 0
cons538:  x134 -999999 x283 <= 0
cons539:  x134 - x283 >= 0
cons540:  309.04750 x135 -1.05000 x284 + x451 >= 0
cons541:  309.04750 x135 -1.05000 x284 - x451 <= 0
cons542:  x135 -999999 x284 <= 0
cons543:  x135 - x284 >= 0
cons544:  309.04750 x136 -1.05000 x285 + x452 >= 0
cons545:  309.04750 x136 -1.05000 x285 - x452 <= 0
cons546:  x136 -999999 x285 <= 0
cons547:  x136 - x285 >= 0
cons548:  309.04750 x137 -1.05000 x286 + x453 >= 0
cons549:  309.04750 x137 -1.05000 x286 - x453 <= 0
cons550:  x137 -999999 x286 <= 0
cons551:  x137 - x286 >= 0
cons552:  309.04750 x138 -1.05000 x287 + x454 >= 0
cons553:  309.04750 x138 -1.05000 x287 - x454 <= 0
cons554:  x138 -999999 x287 <= 0
cons555:  x138 - x287 >= 0
cons556:  309.04750 x139 -1.05000 x288 + x455 >= 0
cons557:  309.04750 x139 -1.05000 x288 - x455 <= 0
cons558:  x139 -999999 x288 <= 0
cons559:  x139 - x288 >= 0
cons560:  309.04750 x140 -1.05000 x289 + x456 >= 0
cons561:  309.04750 x140 -1.05000 x289 - x456 <= 0
cons562:  x140 -999999 x289 <= 0
cons563:  x140 - x289 >= 0
cons564:  309.04750 x141 -52.39300 x290 + x457 >= 0
cons565:  309.04750 x141 -52.39300 x290 - x457 <= 0
cons566:  x141 -999999 x290 <= 0
cons567:  x141 - x290 >= 0
cons568:  309.04750 x142 -25.85400 x291 + x458 >= 0
cons569:  309.04750 x142 -25.85400 x291 - x458 <= 0
cons570:  x142 -999999 x291 <= 0
cons571:  x142 - x291 >= 0
cons572:  309.04750 x143 -1.05000 x292 + x459 >= 0
cons573:  309.04750 x143 -1.05000 x292 - x459 <= 0
cons574:  x143 -999999 x292 <= 0
cons575:  x143 - x292 >= 0
cons576:  309.04750 x144 -1.05000 x293 + x460 >= 0
cons577:  309.04750 x144 -1.05000 x293 - x460 <= 0
cons578:  x144 -999999 x293 <= 0
cons579:  x144 - x293 >= 0
cons580:  309.04750 x145 -1.05000 x294 + x461 >= 0
cons581:  309.04750 x145 -1.05000 x294 - x461 <= 0
cons582:  x145 -999999 x294 <= 0
cons583:  x145 - x294 >= 0
cons584:  309.04750 x146 -1.05000 x295 + x462 >= 0
cons585:  309.04750 x146 -1.05000 x295 - x462 <= 0
cons586:  x146 -999999 x295 <= 0
cons587:  x146 - x295 >= 0
cons588:  309.04750 x147 -110.45300 x296 + x463 >= 0
cons589:  309.04750 x147 -110.45300 x296 - x463 <= 0
cons590:  x147 -999999 x296 <= 0
cons591:  x147 - x296 >= 0
cons592:  309.04750 x148 -28.90060 x297 + x464 >= 0
cons593:  309.04750 x148 -28.90060 x297 - x464 <= 0
cons594:  x148 -999999 x297 <= 0
cons595:  x148 - x297 >= 0
cons596:  309.04750 x149 -1.05000 x298 + x465 >= 0
cons597:  309.04750 x149 -1.05000 x298 - x465 <= 0
cons598:  x149 -999999 x298 <= 0
cons599:  x149 - x298 >= 0
cons600:  309.04750 x150 -1.05000 x299 + x466 >= 0
cons601:  309.04750 x150 -1.05000 x299 - x466 <= 0
cons602:  x150 -999999 x299 <= 0
cons603:  x150 - x299 >= 0
cons604:  309.04750 x151 -1.05000 x300 + x467 >= 0
cons605:  309.04750 x151 -1.05000 x300 - x467 <= 0
cons606:  x151 -999999 x300 <= 0
cons607:  x151 - x300 >= 0
cons608:  309.04750 x152 -1.05000 x301 + x468 >= 0
cons609:  309.04750 x152 -1.05000 x301 - x468 <= 0
cons610:  x152 -999999 x301 <= 0
cons611:  x152 - x301 >= 0
cons612:  309.04750 x153 -1.05000 x302 + x469 >= 0
cons613:  309.04750 x153 -1.05000 x302 - x469 <= 0
cons614:  x153 -999999 x302 <= 0
cons615:  x153 - x302 >= 0
cons616:  309.04750 x154 -1.05000 x303 + x470 >= 0
cons617:  309.04750 x154 -1.05000 x303 - x470 <= 0
cons618:  x154 -999999 x303 <= 0
cons619:  x154 - x303 >= 0
cons620:  309.04750 x155 -1.05000 x304 + x471 >= 0
cons621:  309.04750 x155 -1.05000 x304 - x471 <= 0
cons622:  x155 -999999 x304 <= 0
cons623:  x155 - x304 >= 0
cons624:  309.04750 x156 -1.05000 x305 + x472 >= 0
cons625:  309.04750 x156 -1.05000 x305 - x472 <= 0
cons626:  x156 -999999 x305 <= 0
cons627:  x156 - x305 >= 0
cons628:  309.04750 x157 -1.05000 x306 + x473 >= 0
cons629:  309.04750 x157 -1.05000 x306 - x473 <= 0
cons630:  x157 -999999 x306 <= 0
cons631:  x157 - x306 >= 0
cons632:  309.04750 x158 -1.05000 x307 + x474 >= 0
cons633:  309.04750 x158 -1.05000 x307 - x474 <= 0
cons634:  x158 -999999 x307 <= 0
cons635:  x158 - x307 >= 0
cons636:  309.04750 x159 -1.05000 x308 + x475 >= 0
cons637:  309.04750 x159 -1.05000 x308 - x475 <= 0
cons638:  x159 -999999 x308 <= 0
cons639:  x159 - x308 >= 0
cons640:  309.04750 x160 -406.60100 x309 + x476 >= 0
cons641:  309.04750 x160 -406.60100 x309 - x476 <= 0
cons642:  x160 -999999 x309 <= 0
cons643:  x160 - x309 >= 0
cons644:  309.04750 x161 -1.05000 x310 + x477 >= 0
cons645:  309.04750 x161 -1.05000 x310 - x477 <= 0
cons646:  x161 -999999 x310 <= 0
cons647:  x161 - x310 >= 0
cons648:  309.04750 x162 -1.05000 x311 + x478 >= 0
cons649:  309.04750 x162 -1.05000 x311 - x478 <= 0
cons650:  x162 -999999 x311 <= 0
cons651:  x162 - x311 >= 0
cons652:  309.04750 x163 -1.05000 x312 + x479 >= 0
cons653:  309.04750 x163 -1.05000 x312 - x479 <= 0
cons654:  x163 -999999 x312 <= 0
cons655:  x163 - x312 >= 0
cons656:  309.04750 x164 -10.95200 x313 + x480 >= 0
cons657:  309.04750 x164 -10.95200 x313 - x480 <= 0
cons658:  x164 -999999 x313 <= 0
cons659:  x164 - x313 >= 0
cons660:  309.04750 x165 -1.05000 x314 + x481 >= 0
cons661:  309.04750 x165 -1.05000 x314 - x481 <= 0
cons662:  x165 -999999 x314 <= 0
cons663:  x165 - x314 >= 0
cons664:  309.04750 x166 -23.34520 x315 + x482 >= 0
cons665:  309.04750 x166 -23.34520 x315 - x482 <= 0
cons666:  x166 -999999 x315 <= 0
cons667:  x166 - x315 >= 0
cons668:  x0 - x483 = 4
cons669:  x10 - x484 = 4
Bounds
 1 <= x0
 1 <= x1
 1 <= x2
 1 <= x3
 1 <= x4
 1 <= x5
 1 <= x6
 1 <= x7
 1 <= x8
 1 <= x9
 1 <= x10
 1 <= x11
 1 <= x12
 1 <= x13
 1 <= x14
 1 <= x15
 1 <= x16
 1 <= x17
 1 <= x167 <= 1
 1 <= x168 <= 1
 1 <= x169 <= 1
 1 <= x170 <= 1
 1 <= x171 <= 1
 1 <= x172 <= 1
 1 <= x173 <= 1
 1 <= x174 <= 1
 1 <= x175 <= 1
 1 <= x176 <= 1
 1 <= x177 <= 1
 1 <= x178 <= 1
 1 <= x179 <= 1
 1 <= x180 <= 1
 1 <= x181 <= 1
 1 <= x182 <= 1
 1 <= x183 <= 1
 1 <= x184 <= 1
 1 <= x185 <= 1
 1 <= x186 <= 1
 1 <= x187 <= 1
 1 <= x188 <= 1
 1 <= x189 <= 1
 1 <= x190 <= 1
 1 <= x191 <= 1
 0 <= x192 <= 1
 0 <= x193 <= 1
 0 <= x194 <= 1
 0 <= x195 <= 1
 0 <= x196 <= 1
 0 <= x197 <= 1
 0 <= x198 <= 1
 0 <= x199 <= 1
 0 <= x200 <= 1
 0 <= x201 <= 1
 0 <= x202 <= 1
 0 <= x203 <= 1
 0 <= x204 <= 1
 0 <= x205 <= 1
 0 <= x206 <= 1
 0 <= x207 <= 1
 0 <= x208 <= 1
 0 <= x209 <= 1
 0 <= x210 <= 1
 0 <= x211 <= 1
 0 <= x212 <= 1
 0 <= x213 <= 1
 0 <= x214 <= 1
 0 <= x215 <= 1
 0 <= x216 <= 1
 0 <= x217 <= 1
 0 <= x218 <= 1
 0 <= x219 <= 1
 0 <= x220 <= 1
 0 <= x221 <= 1
 0 <= x222 <= 1
 0 <= x223 <= 1
 0 <= x224 <= 1
 0 <= x225 <= 1
 0 <= x226 <= 1
 0 <= x227 <= 1
 0 <= x228 <= 1
 0 <= x229 <= 1
 0 <= x230 <= 1
 0 <= x231 <= 1
 0 <= x232 <= 1
 0 <= x233 <= 1
 0 <= x234 <= 1
 0 <= x235 <= 1
 0 <= x236 <= 1
 0 <= x237 <= 1
 0 <= x238 <= 1
 0 <= x239 <= 1
 0 <= x240 <= 1
 0 <= x241 <= 1
 0 <= x242 <= 1
 0 <= x243 <= 1
 0 <= x244 <= 1
 0 <= x245 <= 1
 0 <= x246 <= 1
 0 <= x247 <= 1
 0 <= x248 <= 1
 0 <= x249 <= 1
 0 <= x250 <= 1
 0 <= x251 <= 1
 0 <= x252 <= 1
 0 <= x253 <= 1
 0 <= x254 <= 1
 0 <= x255 <= 1
 0 <= x256 <= 1
 0 <= x257 <= 1
 0 <= x258 <= 1
 0 <= x259 <= 1
 0 <= x260 <= 1
 0 <= x261 <= 1
 0 <= x262 <= 1
 0 <= x263 <= 1
 0 <= x264 <= 1
 0 <= x265 <= 1
 0 <= x266 <= 1
 0 <= x267 <= 1
 0 <= x268 <= 1
 0 <= x269 <= 1
 0 <= x270 <= 1
 0 <= x271 <= 1
 0 <= x272 <= 1
 0 <= x273 <= 1
 0 <= x274 <= 1
 0 <= x275 <= 1
 0 <= x276 <= 1
 0 <= x277 <= 1
 0 <= x278 <= 1
 0 <= x279 <= 1
 0 <= x280 <= 1
 0 <= x281 <= 1
 0 <= x282 <= 1
 0 <= x283 <= 1
 0 <= x284 <= 1
 0 <= x285 <= 1
 0 <= x286 <= 1
 0 <= x287 <= 1
 0 <= x288 <= 1
 0 <= x289 <= 1
 0 <= x290 <= 1
 0 <= x291 <= 1
 0 <= x292 <= 1
 0 <= x293 <= 1
 0 <= x294 <= 1
 0 <= x295 <= 1
 0 <= x296 <= 1
 0 <= x297 <= 1
 0 <= x298 <= 1
 0 <= x299 <= 1
 0 <= x300 <= 1
 0 <= x301 <= 1
 0 <= x302 <= 1
 0 <= x303 <= 1
 0 <= x304 <= 1
 0 <= x305 <= 1
 0 <= x306 <= 1
 0 <= x307 <= 1
 0 <= x308 <= 1
 0 <= x309 <= 1
 0 <= x310 <= 1
 0 <= x311 <= 1
 0 <= x312 <= 1
 0 <= x313 <= 1
 0 <= x314 <= 1
 0 <= x315 <= 1
Integers
x0 x1 x2 x3 x4 x5 x6 x7 x8 x9 
x10 x11 x12 x13 x14 x15 x16 x17 x18 x19 
x20 x21 x22 x23 x24 x25 x26 x27 x28 x29 
x30 x31 x32 x33 x34 x35 x36 x37 x38 x39 
x40 x41 x42 x43 x44 x45 x46 x47 x48 x49 
x50 x51 x52 x53 x54 x55 x56 x57 x58 x59 
x60 x61 x62 x63 x64 x65 x66 x67 x68 x69 
x70 x71 x72 x73 x74 x75 x76 x77 x78 x79 
x80 x81 x82 x83 x84 x85 x86 x87 x88 x89 
x90 x91 x92 x93 x94 x95 x96 x97 x98 x99 
x100 x101 x102 x103 x104 x105 x106 x107 x108 x109 
x110 x111 x112 x113 x114 x115 x116 x117 x118 x119 
x120 x121 x122 x123 x124 x125 x126 x127 x128 x129 
x130 x131 x132 x133 x134 x135 x136 x137 x138 x139 
x140 x141 x142 x143 x144 x145 x146 x147 x148 x149 
x150 x151 x152 x153 x154 x155 x156 x157 x158 x159 
x160 x161 x162 x163 x164 x165 x166 x167 x168 x169 
x170 x171 x172 x173 x174 x175 x176 x177 x178 x179 
x180 x181 x182 x183 x184 x185 x186 x187 x188 x189 
x190 x191 x192 x193 x194 x195 x196 x197 x198 x199 
x200 x201 x202 x203 x204 x205 x206 x207 x208 x209 
x210 x211 x212 x213 x214 x215 x216 x217 x218 x219 
x220 x221 x222 x223 x224 x225 x226 x227 x228 x229 
x230 x231 x232 x233 x234 x235 x236 x237 x238 x239 
x240 x241 x242 x243 x244 x245 x246 x247 x248 x249 
x250 x251 x252 x253 x254 x255 x256 x257 x258 x259 
x260 x261 x262 x263 x264 x265 x266 x267 x268 x269 
x270 x271 x272 x273 x274 x275 x276 x277 x278 x279 
x280 x281 x282 x283 x284 x285 x286 x287 x288 x289 
x290 x291 x292 x293 x294 x295 x296 x297 x298 x299 
x300 x301 x302 x303 x304 x305 x306 x307 x308 x309 
x310 x311 x312 x313 x314 x315 
End
